40
6	9	10	15	16	22	26	35	0
3	4	8	15	24	25	32	34	36	37	40	0
2	4	6	7	9	11	12	13	14	21	23	25	26	27	29	30	32	38	40	0
2	3	9	15	18	19	20	23	27	30	33	34	35	36	39	0
6	7	10	11	13	14	16	17	21	23	24	25	26	27	29	30	31	34	38	0
1	3	5	7	9	10	12	13	15	21	22	27	28	32	34	35	38	0
3	5	6	9	12	14	20	22	24	26	30	0
2	9	10	11	14	17	18	20	21	22	26	28	29	31	34	36	37	38	39	0
1	3	4	6	7	8	10	11	14	18	21	22	29	30	32	34	39	0
1	5	6	8	9	11	12	19	21	29	30	38	39	0
3	5	8	9	10	12	14	18	23	27	28	29	32	34	38	0
3	6	7	10	11	14	16	18	21	22	28	31	32	33	34	37	38	40	0
3	5	6	14	16	17	19	21	23	25	27	31	32	33	34	37	39	0
3	5	7	8	9	11	12	13	20	22	24	26	28	32	33	35	36	37	38	40	0
1	2	4	6	16	17	18	26	27	29	31	39	40	0
1	5	12	13	15	18	23	24	25	27	30	32	35	36	39	0
5	8	13	15	18	19	20	21	23	25	26	28	29	34	35	36	37	38	0
4	8	9	11	12	15	16	17	19	26	27	28	30	32	34	35	36	39	0
4	10	13	17	18	22	23	24	25	26	27	28	31	32	34	35	36	0
4	7	8	14	17	26	27	28	29	31	32	33	34	37	38	0
3	5	6	8	9	10	12	13	17	24	25	27	30	31	33	40	0
1	6	7	8	9	12	14	19	24	25	26	27	29	32	34	35	36	39	40	0
3	4	5	11	13	16	17	19	24	26	28	31	32	35	37	39	0
2	5	7	14	16	19	21	22	23	25	27	31	36	39	0
2	3	5	13	16	17	19	21	22	24	27	30	31	35	39	0
1	3	5	7	8	14	15	17	18	19	20	22	23	27	32	34	35	36	0
3	4	5	6	11	13	15	16	18	19	20	21	22	24	25	26	28	29	30	33	35	37	40	0
6	8	11	12	14	17	18	19	20	23	27	29	31	32	38	0
3	5	8	9	10	11	15	17	20	22	27	28	30	36	0
3	4	5	7	9	10	16	18	21	25	27	29	33	35	36	37	0
5	8	12	13	15	19	20	21	23	24	25	28	35	36	0
2	3	6	9	11	12	13	14	16	18	19	20	22	23	26	28	34	35	0
4	12	13	14	20	21	27	30	35	38	0
2	4	5	6	8	9	11	12	13	17	18	19	20	22	26	32	37	40	0
1	4	6	14	16	17	18	19	22	23	25	26	27	30	31	32	33	40	0
2	4	8	14	16	17	18	19	22	24	26	29	30	31	38	0
2	8	12	13	14	17	20	23	27	30	34	38	40	0
3	5	6	8	10	11	12	14	17	20	28	33	36	37	0
4	8	9	10	13	15	16	18	22	23	24	25	0
2	3	12	14	15	21	22	27	34	35	37	0


comments:
random graph
nodes 40
edges 312
rng seed 34 
